49 38 
61 66 
30 74 
82 68 
27 52 
57 21 
83 15 
64 53 
7 28 
47 62 
77 51 
70 12 
31 22 
50 19 
74 78 
63 75 
68 25 
41 50 
51 23 
19 30 
28 28 
51 11 
95 68 
64 3 
96 64 
17 74 
15 87 
38 98 
61 88 
17 35 
18 81 
11 38 
58 4 
89 61 
80 60 
92 8 
40 43 
71 87 
11 88 
90 60 
52 8 
86 19 
47 24 
17 9 
65 86 
96 83 
67 59 
74 77 
16 15 
39 96 
